Geographic Exponential Decay
40 186 156 35 19 139 311 100 103 184 53 122 274 222 31 144 112 261 27 63 120 196 210 211 56 257 118 291 83 292 150 131 54 0 237 49 194 76 271 74 272
p edge 320 322
e 0 293 89.0
e 0 110 49.0
e 0 101 34.0
e 0 262 13.0
e 0 164 31.0
e 1 27 4.0
e 1 0 47.0
e 2 58 1.0
e 2 1 2.0
e 3 252 2.0
e 3 2 1.0
e 4 50 1.0
e 4 3 1.0
e 5 212 5.0
e 5 4 1.0
e 6 279 5.0
e 6 5 4.0
e 7 253 3.0
e 7 6 8.0
e 8 210 39.0
e 9 57 5.0
e 9 7 1.0
e 10 198 2.0
e 10 9 1.0
e 11 97 2.0
e 11 10 5.0
e 12 276 6.0
e 12 11 1.0
e 13 14 1.0
e 13 12 4.0
e 15 89 2.0
e 15 13 1.0
e 16 315 1.0
e 16 15 1.0
e 17 296 5.0
e 17 16 1.0
e 18 213 2.0
e 18 17 1.0
e 19 200 94.0
e 19 304 53.0
e 19 124 34.0
e 19 128 95.0
e 19 169 54.0
e 20 39 1.0
e 20 18 1.0
e 21 22 2.0
e 21 20 1.0
e 23 214 2.0
e 23 21 1.0
e 24 115 1.0
e 24 23 2.0
e 25 61 1.0
e 25 24 2.0
e 26 165 4.0
e 26 25 3.0
e 27 243 85.0
e 27 138 48.0
e 27 205 3.0
e 27 139 19.0
e 28 103 49.0
e 29 265 4.0
e 29 26 1.0
e 30 284 4.0
e 30 29 2.0
e 31 268 13.0
e 31 51 92.0
e 31 184 27.0
e 31 32 67.0
e 31 78 45.0
e 33 204 1.0
e 33 30 2.0
e 34 99 2.0
e 34 33 1.0
e 35 36 30.0
e 35 285 62.0
e 35 206 42.0
e 35 142 49.0
e 35 226 15.0
e 35 34 41.0
e 37 199 1.0
e 37 35 93.0
e 38 272 47.0
e 38 37 2.0
e 40 298 12.0
e 40 38 4.0
e 41 281 1.0
e 41 40 2.0
e 42 65 3.0
e 42 41 5.0
e 43 272 60.0
e 44 159 1.0
e 44 42 5.0
e 45 72 2.0
e 45 44 2.0
e 46 224 5.0
e 46 45 5.0
e 47 125 2.0
e 47 46 1.0
e 48 49 8.0
e 48 47 5.0
e 49 314 14.0
e 49 86 89.0
e 49 175 64.0
e 49 216 88.0
e 52 91 1.0
e 52 48 4.0
e 53 157 97.0
e 53 136 36.0
e 53 134 6.0
e 53 93 94.0
e 53 100 72.0
e 54 55 12.0
e 54 137 70.0
e 54 201 51.0
e 54 56 67.0
e 54 111 50.0
e 54 52 41.0
e 56 229 90.0
e 56 261 72.0
e 56 59 87.0
e 56 181 71.0
e 60 272 96.0
e 62 127 5.0
e 62 54 36.0
e 63 238 39.0
e 63 139 38.0
e 63 64 6.0
e 63 227 13.0
e 63 209 12.0
e 66 67 4.0
e 66 62 3.0
e 68 102 4.0
e 68 66 4.0
e 69 98 1.0
e 69 68 1.0
e 70 273 1.0
e 70 69 3.0
e 71 100 48.0
e 73 218 1.0
e 73 70 5.0
e 74 104 37.0
e 74 75 70.0
e 74 317 33.0
e 74 76 46.0
e 74 77 95.0
e 76 118 53.0
e 76 163 31.0
e 76 113 24.0
e 76 157 66.0
e 79 80 3.0
e 79 73 1.0
e 81 176 6.0
e 81 79 2.0
e 82 195 6.0
e 82 81 5.0
e 83 177 39.0
e 83 286 52.0
e 83 114 37.0
e 83 109 70.0
e 83 203 15.0
e 84 254 2.0
e 84 82 9.0
e 85 129 3.0
e 85 84 1.0
e 86 256 11.0
e 87 117 6.0
e 87 85 2.0
e 88 133 1.0
e 88 87 1.0
e 90 215 12.0
e 90 88 1.0
e 92 160 1.0
e 92 90 2.0
e 94 207 3.0
e 94 92 6.0
e 95 96 1.0
e 95 94 4.0
e 100 103 35.0
e 100 167 70.0
e 100 139 66.0
e 103 170 69.0
e 103 126 68.0
e 103 149 34.0
e 105 277 5.0
e 105 95 2.0
e 106 287 9.0
e 106 105 1.0
e 107 130 1.0
e 107 106 2.0
e 108 182 2.0
e 108 107 5.0
e 112 305 53.0
e 112 210 82.0
e 112 158 58.0
e 112 116 67.0
e 112 217 13.0
e 116 278 11.0
e 118 208 54.0
e 118 119 58.0
e 118 168 9.0
e 118 120 3.0
e 120 280 32.0
e 120 121 19.0
e 120 122 36.0
e 120 166 59.0
e 122 239 76.0
e 122 255 99.0
e 122 123 48.0
e 122 282 58.0
e 124 131 55.0
e 131 231 50.0
e 131 132 87.0
e 131 135 7.0
e 131 180 18.0
e 132 139 5.0
e 139 154 4.0
e 140 300 2.0
e 140 108 4.0
e 141 143 3.0
e 141 140 2.0
e 144 161 58.0
e 144 145 80.0
e 144 146 84.0
e 144 147 49.0
e 144 148 21.0
e 144 141 30.0
e 150 151 50.0
e 150 152 84.0
e 150 153 98.0
e 150 286 88.0
e 150 154 74.0
e 155 156 68.0
e 155 144 94.0
e 156 162 85.0
e 156 275 5.0
e 156 171 67.0
e 156 172 74.0
e 173 174 11.0
e 173 178 5.0
e 173 155 2.0
e 174 306 16.0
e 179 266 1.0
e 179 173 22.0
e 183 275 23.0
e 184 217 94.0
e 184 307 52.0
e 184 185 24.0
e 184 294 69.0
e 186 187 60.0
e 186 297 33.0
e 186 188 52.0
e 186 189 83.0
e 186 190 78.0
e 186 179 59.0
e 191 288 6.0
e 191 186 21.0
e 192 193 8.0
e 192 191 4.0
e 194 196 62.0
e 194 197 29.0
e 194 267 100.0
e 194 202 19.0
e 194 203 34.0
e 196 210 4.0
e 196 259 67.0
e 196 211 67.0
e 196 301 52.0
e 210 211 2.0
e 210 219 37.0
e 211 246 65.0
e 211 220 79.0
e 211 289 63.0
e 221 222 48.0
e 221 192 3.0
e 222 223 45.0
e 222 225 79.0
e 222 228 97.0
e 222 230 94.0
e 232 233 2.0
e 232 221 4.0
e 234 244 5.0
e 234 232 3.0
e 235 236 20.0
e 236 302 19.0
e 237 302 29.0
e 237 240 23.0
e 237 241 47.0
e 237 283 70.0
e 237 308 72.0
e 242 245 2.0
e 242 234 7.0
e 247 248 2.0
e 247 242 1.0
e 249 250 8.0
e 249 247 3.0
e 251 257 98.0
e 257 258 1.0
e 257 260 75.0
e 257 261 8.0
e 257 263 2.0
e 261 295 17.0
e 261 264 76.0
e 261 269 8.0
e 270 271 12.0
e 271 272 94.0
e 271 309 64.0
e 271 274 6.0
e 271 290 28.0
e 272 316 9.0
e 274 302 72.0
e 274 291 72.0
e 274 292 36.0
e 274 299 73.0
e 291 310 27.0
e 291 292 22.0
e 291 303 9.0
e 291 311 98.0
e 292 311 44.0
e 292 312 16.0
e 292 313 59.0
e 311 318 42.0
e 311 319 67.0
